[1, 2, 3, 4, 5, 6, 7, 8, 9, 10, 11, 12, 13, 14, 15, 16, 17, 18, 19, 20, 21, 22, 23, 24, 25, 26, 27, 28, 29, 30, 251, 139, 34, 33, 35, 38, 38, 37, 39, 41, 40, 42, 42, 43, 42, 41, 48, 49, 48, 40, 44, 58, 56, 55, 54, 54, 53, 59, 59, 61, 60, 62, 63, 64, 56, 58, 63, 174, 71, 70, 71, 73, 72, 75, 75, 78, 77, 76, 79, 80, 81, 84, 84, 86, 85, 86, 87, 88, 90, 90, 96, 92, 93, 94, 95, 96, 95, 94, 95, 98, 104, 101, 102, 103, 104, 106, 105, 105, 104, 110, 112, 113, 113, 114, 115, 113, 112, 114, 121, 120, 119, 122, 122, 124, 125, 126, 127, 128, 130, 129, 132, 133, 132, 134, 136, 136, 137, 138, 139, 140, 141, 147, 144, 143, 143, 147, 148, 148, 149, 150, 152, 153, 153, 156, 154, 155, 153, 158, 159, 160, 161, 163, 162, 164, 166, 165, 165, 163, 165, 164, 174, 175, 160, 177, 176, 177, 177, 179, 179, 180, 181, 182, 183, 184, 185, 186, 186, 190, 190, 191, 190, 192, 191, 194, 195, 196, 195, 194, 201, 196, 198, 205, 207, 206, 211, 210, 207, 210, 210, 209, 214, 213, 212, 212, 214, 217, 217, 218, 219, 220, 217, 219, 223, 225, 226, 226, 227, 224, 236, 235, 233, 231, 236, 232, 235, 236, 237, 238, 246, 240, 242, 241, 243, 244, 242, 241, 247, 250, 247, 248, 252, 255, 256, 254, 255, 258, 256, 257, 258, 260, 260, 260, 263, 263, 265, 268, 268, 267, 269, 271, 272, 272, 274, 274, 275, 276, 276, 275, 278, 36]
[1, 2, 3, 4, 5, 6, 7, 8, 9, 10, 11, 12, 13, 14, 15, 16, 17, 18, 19, 20, 21, 22, 23, 24, 25, 26, 27, 28, 29, 181, 182, 257, 257]
